527.77,71.34,81.48
542.71,69.38,79.24
488.51,77.07,88.03
510.09,73.81,84.3
520.22,72.38,82.66
482.05,78.11,89.21
498.81,75.48,86.21
560.93,67.12,76.66
515.5,73.04,83.42
498.21,75.57,86.31
534.96,70.38,80.38
539.28,69.82,79.74
483.77,77.83,88.89
528.94,71.18,81.3
521.25,72.23,82.5
511.68,73.58,84.04
529.56,71.1,81.2
500.5,75.23,85.92
505.05,74.55,85.14
495.84,75.93,86.72
